p tw 49 55
1 2
2 13
3 4
3 7
4 5
5 6
6 7
7 8
8 9
9 10
10 40
11 12
12 14
13 24
13 35
14 15
15 16
16 17
16 23
17 18
18 19
19 20
20 21
20 23
21 22
22 14
23 25
24 43
25 26
25 27
26 43
27 28
28 29
29 30
29 33
30 31
31 32
32 33
33 34
34 36
35 45
36 37
37 38
38 39
39 40
40 41
41 42
42 43
43 44
45 46
46 47
47 48
48 49
48 11
49 3
